r = [
0,65,92,82,80,36,142,144,34,118,84,0
];
p = [
0,8,21,16,1,16,26,21,29,28,5,0
];
e = [
0,11,8,9,16,4,2,11,12,20,18,0
];
d = [
0,117,123,98,81,75,168,165,63,149,89,181
];
d_bar = [
0,121,134,106,82,83,181,176,78,163,92,181
];
w = [
0,2.75,0.727272727,1.125,16,0.5,0.153846154,1,0.8,1.428571429,6,0
];
